Maximize
  - 1.0098234816614 edge_0_1_0_0 - 1.0343256768999 edge_0_2_0_0
   - 0.7813624571844 edge_0_3_0_0 - 1.7450940803391 edge_0_5_0_0
   - 4.391861237355601 edge_0_7_0_0 - 2.4521465612303 edge_0_10_0_0
   - 2.9175036976492 edge_0_11_0_0 - 3.7768587202512 edge_0_12_0_0
   - 3.5409482808382 edge_0_13_0_0 - 2.6252433808902 edge_0_14_0_0
   + 1.192736625136461 edge_1_2_0_0 + 0.3583124986781536 edge_1_3_0_0
   + 0.9068539308529524 edge_1_5_0_0 - 0.0142365731203172 edge_1_6_0_0
   + 0.8825699090261995 edge_1_7_0_0 + 0.4361402486331302 edge_1_8_0_0
   + 0.0239033807402163 edge_1_10_0_0 + 0.7015068713046569 edge_1_11_0_0
   - 0.3228486043143528 edge_1_12_0_0 - 0.0751952254918453 edge_1_13_0_0
   - 0.2304076719793371 edge_1_14_0_0 + 1.2908367167312 edge_1_15_0_0
   + 0.1902926532889399 edge_2_1_0_0 + 0.1552249675673719 edge_2_3_0_0
   + 0.7353883045090418 edge_2_5_0_0 + 0.183910006025571 edge_2_6_0_0
   + 0.8770607630344819 edge_2_7_0_0 - 0.1717350147888915 edge_2_8_0_0
   + 0.7413759753042294 edge_2_9_0_0 + 0.7441628782313747 edge_2_11_0_0
   - 0.1052151688587138 edge_2_13_0_0 + 0.3934183300565351 edge_2_14_0_0
   - 0.2517677087611127 edge_2_15_0_0 + 0.6883008153164328 edge_3_1_0_0
   + 1.15608759479301 edge_3_2_0_0 + 2.029820260545806 edge_3_5_0_0
   - 0.1467081655200254 edge_3_6_0_0 + 0.4254682410263643 edge_3_7_0_0
   + 0.313371981216516 edge_3_8_0_0 + 0.4666646709561547 edge_3_10_0_0
   + 0.4447367535086718 edge_3_12_0_0 - 0.5601845635355488 edge_3_13_0_0
   + 0.8374254800873506 edge_3_14_0_0 + 2.019810543689284 edge_3_15_0_0
   + 0.9192241933617025 edge_5_1_0_0 + 2.51436897150541 edge_5_2_0_0
   + 0.00827729923396489 edge_5_3_0_0 + 0.3937240311008686 edge_5_6_0_0
   + 1.228382364877617 edge_5_7_0_0 + 1.173586077222462 edge_5_8_0_0
   + 0.5947120132271823 edge_5_9_0_0 + 0.8433720245446603 edge_5_10_0_0
   + 0.8406239544627562 edge_5_11_0_0 + 0.4585671277739691 edge_5_12_0_0
   - 0.1004122030199959 edge_5_13_0_0 + 0.9299254442803495 edge_5_14_0_0
   + 2.4934187161875 edge_5_15_0_0 - 0.1415479339281756 edge_6_1_0_0
   - 0.2439889693576357 edge_6_2_0_0 - 0.4702126512294582 edge_6_3_0_0
   - 0.2795535096369631 edge_6_5_0_0 + 0.9745874528580963 edge_6_7_0_0
   + 0.3359899228184607 edge_6_8_0_0 + 0.4208932270890253 edge_6_9_0_0
   - 0.1140796843467241 edge_6_10_0_0 - 0.0480493765193751 edge_6_11_0_0
   - 1.031979439103926 edge_6_12_0_0 - 0.0711449841507183 edge_6_13_0_0
   - 0.0413874196078606 edge_6_14_0_0 - 0.4915305201292454 edge_6_15_0_0
   + 0.235765051657801 edge_7_1_0_0 + 0.3033602651677687 edge_7_2_0_0
   + 0.2458802752631367 edge_7_3_0_0 + 0.1960814556257452 edge_7_5_0_0
   + 3.230917891948464 edge_7_6_0_0 + 1.204210703241042 edge_7_8_0_0
   + 0.8125422240549082 edge_7_9_0_0 + 0.401342457826062 edge_7_10_0_0
   + 0.8200492987403956 edge_7_11_0_0 + 0.181209802837875 edge_7_12_0_0
   - 0.135013812454066 edge_7_13_0_0 + 0.6006478582049336 edge_7_14_0_0
   + 0.2657553596477777 edge_7_15_0_0 - 0.9390510904158792 edge_8_1_0_0
   - 0.2704373594772499 edge_8_6_0_0 - 0.1587529019598872 edge_8_7_0_0
   - 0.0823444331065359 edge_8_11_0_0 - 0.336121622214297 edge_8_13_0_0
   - 0.1163948736794525 edge_8_14_0_0 - 0.0600144455075592 edge_9_6_0_0
   - 0.0516136914160392 edge_9_7_0_0 - 0.2158652561077911 edge_9_11_0_0
   - 0.4639170601817265 edge_9_13_0_0 - 0.1503277628621685 edge_10_1_0_0
   + 0.3049709937552422 edge_10_2_0_0 - 0.5825630766013156 edge_10_3_0_0
   - 0.3168724476351346 edge_10_5_0_0 + 0.0262876677064592 edge_10_6_0_0
   + 0.7865203315932917 edge_10_7_0_0 + 0.5184870558161894 edge_10_8_0_0
   + 2.683192691484897 edge_10_11_0_0 + 1.859437771256819 edge_10_12_0_0
   + 1.286841906198609 edge_10_13_0_0 + 1.5181281934253 edge_10_14_0_0
   + 0.6132555991815266 edge_10_15_0_0 - 0.7829639577720515 edge_11_1_0_0
   - 0.0981649858110352 edge_11_2_0_0 - 0.0833059666549441 edge_11_5_0_0
   + 0.4488248291042769 edge_11_6_0_0 + 0.4186246304925649 edge_11_7_0_0
   + 0.5531263631396518 edge_11_8_0_0 + 0.0758047834782875 edge_11_9_0_0
   + 1.336882823179547 edge_11_10_0_0 + 1.221935909387327 edge_11_12_0_0
   + 0.9082464880173127 edge_11_13_0_0 + 1.537554637911781 edge_11_14_0_0
   + 0.6544683935379501 edge_11_15_0_0 - 0.0680634689293041 edge_12_1_0_0
   + 0.5333164430986548 edge_12_2_0_0 - 0.3287072365860431 edge_12_3_0_0
   - 0.1245929315023726 edge_12_5_0_0 + 0.2288870094470545 edge_12_6_0_0
   - 0.4182931608506243 edge_12_7_0_0 + 0.8045414038652468 edge_12_8_0_0
   + 1.766113257107295 edge_12_10_0_0 + 1.153381514157161 edge_12_11_0_0
   + 2.013365318382918 edge_12_13_0_0 + 1.2694026818664 edge_12_14_0_0
   + 1.500000757703609 edge_12_15_0_0 - 1.508206336723952 edge_13_1_0_0
   - 1.122735808477073 edge_13_2_0_0 - 0.215096976601841 edge_13_7_0_0
   + 0.1003814988734441 edge_13_8_0_0 - 0.1820231673104537 edge_13_9_0_0
   + 0.2864628428835561 edge_13_10_0_0 + 0.078391265959433 edge_13_11_0_0
   + 1.472795852939763 edge_13_12_0_0 + 1.7119277320863 edge_13_14_0_0
   + 0.94349055186502 edge_13_15_0_0 + 0.0412775239954456 edge_14_1_0_0
   + 0.1490000934259145 edge_14_2_0_0 - 0.1833777342525193 edge_14_3_0_0
   - 0.0179886413469875 edge_14_5_0_0 + 1.9722172470852 edge_14_6_0_0
   + 0.5329761187801501 edge_14_7_0_0 + 1.720171508913663 edge_14_8_0_0
   + 1.445352499792595 edge_14_10_0_0 + 0.3557084920415598 edge_14_11_0_0
   + 1.81854847383332 edge_14_12_0_0 + 2.823150212420413 edge_14_13_0_0
   + 1.34915 edge_14_15_0_0 - 1.43803649190056 edge_15_12_0_0
   - 1.310079675702154 edge_15_13_0_0
Subject To
 one_parent_1: edge_0_1_0_0 + edge_2_1_0_0 + edge_3_1_0_0 + edge_5_1_0_0
   + edge_6_1_0_0 + edge_7_1_0_0 + edge_8_1_0_0 + edge_10_1_0_0
   + edge_11_1_0_0 + edge_12_1_0_0 + edge_13_1_0_0 + edge_14_1_0_0 = 1
 consume_one_flow_unit_1: flow_0_1_0_0 - flow_1_2_0_0 - flow_1_3_0_0
   - flow_1_5_0_0 - flow_1_6_0_0 - flow_1_7_0_0 - flow_1_8_0_0
   - flow_1_10_0_0 - flow_1_11_0_0 - flow_1_12_0_0 - flow_1_13_0_0
   - flow_1_14_0_0 - flow_1_15_0_0 + flow_2_1_0_0 + flow_3_1_0_0
   + flow_5_1_0_0 + flow_6_1_0_0 + flow_7_1_0_0 + flow_8_1_0_0
   + flow_10_1_0_0 + flow_11_1_0_0 + flow_12_1_0_0 + flow_13_1_0_0
   + flow_14_1_0_0 = 1
 one_parent_2: edge_0_2_0_0 + edge_1_2_0_0 + edge_3_2_0_0 + edge_5_2_0_0
   + edge_6_2_0_0 + edge_7_2_0_0 + edge_10_2_0_0 + edge_11_2_0_0
   + edge_12_2_0_0 + edge_13_2_0_0 + edge_14_2_0_0 = 1
 consume_one_flow_unit_2: flow_0_2_0_0 + flow_1_2_0_0 - flow_2_1_0_0
   - flow_2_3_0_0 - flow_2_5_0_0 - flow_2_6_0_0 - flow_2_7_0_0
   - flow_2_8_0_0 - flow_2_9_0_0 - flow_2_11_0_0 - flow_2_13_0_0
   - flow_2_14_0_0 - flow_2_15_0_0 + flow_3_2_0_0 + flow_5_2_0_0
   + flow_6_2_0_0 + flow_7_2_0_0 + flow_10_2_0_0 + flow_11_2_0_0
   + flow_12_2_0_0 + flow_13_2_0_0 + flow_14_2_0_0 = 1
 one_parent_3: edge_0_3_0_0 + edge_1_3_0_0 + edge_2_3_0_0 + edge_5_3_0_0
   + edge_6_3_0_0 + edge_7_3_0_0 + edge_10_3_0_0 + edge_12_3_0_0
   + edge_14_3_0_0 = 1
 consume_one_flow_unit_3: flow_0_3_0_0 + flow_1_3_0_0 + flow_2_3_0_0
   - flow_3_1_0_0 - flow_3_2_0_0 - flow_3_5_0_0 - flow_3_6_0_0
   - flow_3_7_0_0 - flow_3_8_0_0 - flow_3_10_0_0 - flow_3_12_0_0
   - flow_3_13_0_0 - flow_3_14_0_0 - flow_3_15_0_0 + flow_5_3_0_0
   + flow_6_3_0_0 + flow_7_3_0_0 + flow_10_3_0_0 + flow_12_3_0_0
   + flow_14_3_0_0 = 1
 one_parent_4: = 1
 consume_one_flow_unit_4: = 1
 one_parent_5: edge_0_5_0_0 + edge_1_5_0_0 + edge_2_5_0_0 + edge_3_5_0_0
   + edge_6_5_0_0 + edge_7_5_0_0 + edge_10_5_0_0 + edge_11_5_0_0
   + edge_12_5_0_0 + edge_14_5_0_0 = 1
 consume_one_flow_unit_5: flow_0_5_0_0 + flow_1_5_0_0 + flow_2_5_0_0
   + flow_3_5_0_0 - flow_5_1_0_0 - flow_5_2_0_0 - flow_5_3_0_0
   - flow_5_6_0_0 - flow_5_7_0_0 - flow_5_8_0_0 - flow_5_9_0_0
   - flow_5_10_0_0 - flow_5_11_0_0 - flow_5_12_0_0 - flow_5_13_0_0
   - flow_5_14_0_0 - flow_5_15_0_0 + flow_6_5_0_0 + flow_7_5_0_0
   + flow_10_5_0_0 + flow_11_5_0_0 + flow_12_5_0_0 + flow_14_5_0_0 = 1
 one_parent_6: edge_1_6_0_0 + edge_2_6_0_0 + edge_3_6_0_0 + edge_5_6_0_0
   + edge_7_6_0_0 + edge_8_6_0_0 + edge_9_6_0_0 + edge_10_6_0_0
   + edge_11_6_0_0 + edge_12_6_0_0 + edge_14_6_0_0 = 1
 consume_one_flow_unit_6: flow_1_6_0_0 + flow_2_6_0_0 + flow_3_6_0_0
   + flow_5_6_0_0 - flow_6_1_0_0 - flow_6_2_0_0 - flow_6_3_0_0
   - flow_6_5_0_0 - flow_6_7_0_0 - flow_6_8_0_0 - flow_6_9_0_0
   - flow_6_10_0_0 - flow_6_11_0_0 - flow_6_12_0_0 - flow_6_13_0_0
   - flow_6_14_0_0 - flow_6_15_0_0 + flow_7_6_0_0 + flow_8_6_0_0
   + flow_9_6_0_0 + flow_10_6_0_0 + flow_11_6_0_0 + flow_12_6_0_0
   + flow_14_6_0_0 = 1
 one_parent_7: edge_0_7_0_0 + edge_1_7_0_0 + edge_2_7_0_0 + edge_3_7_0_0
   + edge_5_7_0_0 + edge_6_7_0_0 + edge_8_7_0_0 + edge_9_7_0_0
   + edge_10_7_0_0 + edge_11_7_0_0 + edge_12_7_0_0 + edge_13_7_0_0
   + edge_14_7_0_0 = 1
 consume_one_flow_unit_7: flow_0_7_0_0 + flow_1_7_0_0 + flow_2_7_0_0
   + flow_3_7_0_0 + flow_5_7_0_0 + flow_6_7_0_0 - flow_7_1_0_0
   - flow_7_2_0_0 - flow_7_3_0_0 - flow_7_5_0_0 - flow_7_6_0_0
   - flow_7_8_0_0 - flow_7_9_0_0 - flow_7_10_0_0 - flow_7_11_0_0
   - flow_7_12_0_0 - flow_7_13_0_0 - flow_7_14_0_0 - flow_7_15_0_0
   + flow_8_7_0_0 + flow_9_7_0_0 + flow_10_7_0_0 + flow_11_7_0_0
   + flow_12_7_0_0 + flow_13_7_0_0 + flow_14_7_0_0 = 1
 one_parent_8: edge_1_8_0_0 + edge_2_8_0_0 + edge_3_8_0_0 + edge_5_8_0_0
   + edge_6_8_0_0 + edge_7_8_0_0 + edge_10_8_0_0 + edge_11_8_0_0
   + edge_12_8_0_0 + edge_13_8_0_0 + edge_14_8_0_0 = 1
 consume_one_flow_unit_8: flow_1_8_0_0 + flow_2_8_0_0 + flow_3_8_0_0
   + flow_5_8_0_0 + flow_6_8_0_0 + flow_7_8_0_0 - flow_8_1_0_0
   - flow_8_6_0_0 - flow_8_7_0_0 - flow_8_11_0_0 - flow_8_13_0_0
   - flow_8_14_0_0 + flow_10_8_0_0 + flow_11_8_0_0 + flow_12_8_0_0
   + flow_13_8_0_0 + flow_14_8_0_0 = 1
 one_parent_9: edge_2_9_0_0 + edge_5_9_0_0 + edge_6_9_0_0 + edge_7_9_0_0
   + edge_11_9_0_0 + edge_13_9_0_0 = 1
 consume_one_flow_unit_9: flow_2_9_0_0 + flow_5_9_0_0 + flow_6_9_0_0
   + flow_7_9_0_0 - flow_9_6_0_0 - flow_9_7_0_0 - flow_9_11_0_0
   - flow_9_13_0_0 + flow_11_9_0_0 + flow_13_9_0_0 = 1
 one_parent_10: edge_0_10_0_0 + edge_1_10_0_0 + edge_3_10_0_0
   + edge_5_10_0_0 + edge_6_10_0_0 + edge_7_10_0_0 + edge_11_10_0_0
   + edge_12_10_0_0 + edge_13_10_0_0 + edge_14_10_0_0 = 1
 consume_one_flow_unit_10: flow_0_10_0_0 + flow_1_10_0_0 + flow_3_10_0_0
   + flow_5_10_0_0 + flow_6_10_0_0 + flow_7_10_0_0 - flow_10_1_0_0
   - flow_10_2_0_0 - flow_10_3_0_0 - flow_10_5_0_0 - flow_10_6_0_0
   - flow_10_7_0_0 - flow_10_8_0_0 - flow_10_11_0_0 - flow_10_12_0_0
   - flow_10_13_0_0 - flow_10_14_0_0 - flow_10_15_0_0 + flow_11_10_0_0
   + flow_12_10_0_0 + flow_13_10_0_0 + flow_14_10_0_0 = 1
 one_parent_11: edge_0_11_0_0 + edge_1_11_0_0 + edge_2_11_0_0
   + edge_5_11_0_0 + edge_6_11_0_0 + edge_7_11_0_0 + edge_8_11_0_0
   + edge_9_11_0_0 + edge_10_11_0_0 + edge_12_11_0_0 + edge_13_11_0_0
   + edge_14_11_0_0 = 1
 consume_one_flow_unit_11: flow_0_11_0_0 + flow_1_11_0_0 + flow_2_11_0_0
   + flow_5_11_0_0 + flow_6_11_0_0 + flow_7_11_0_0 + flow_8_11_0_0
   + flow_9_11_0_0 + flow_10_11_0_0 - flow_11_1_0_0 - flow_11_2_0_0
   - flow_11_5_0_0 - flow_11_6_0_0 - flow_11_7_0_0 - flow_11_8_0_0
   - flow_11_9_0_0 - flow_11_10_0_0 - flow_11_12_0_0 - flow_11_13_0_0
   - flow_11_14_0_0 - flow_11_15_0_0 + flow_12_11_0_0 + flow_13_11_0_0
   + flow_14_11_0_0 = 1
 one_parent_12: edge_0_12_0_0 + edge_1_12_0_0 + edge_3_12_0_0
   + edge_5_12_0_0 + edge_6_12_0_0 + edge_7_12_0_0 + edge_10_12_0_0
   + edge_11_12_0_0 + edge_13_12_0_0 + edge_14_12_0_0 + edge_15_12_0_0 = 1
 consume_one_flow_unit_12: flow_0_12_0_0 + flow_1_12_0_0 + flow_3_12_0_0
   + flow_5_12_0_0 + flow_6_12_0_0 + flow_7_12_0_0 + flow_10_12_0_0
   + flow_11_12_0_0 - flow_12_1_0_0 - flow_12_2_0_0 - flow_12_3_0_0
   - flow_12_5_0_0 - flow_12_6_0_0 - flow_12_7_0_0 - flow_12_8_0_0
   - flow_12_10_0_0 - flow_12_11_0_0 - flow_12_13_0_0 - flow_12_14_0_0
   - flow_12_15_0_0 + flow_13_12_0_0 + flow_14_12_0_0 + flow_15_12_0_0 = 1
 one_parent_13: edge_0_13_0_0 + edge_1_13_0_0 + edge_2_13_0_0
   + edge_3_13_0_0 + edge_5_13_0_0 + edge_6_13_0_0 + edge_7_13_0_0
   + edge_8_13_0_0 + edge_9_13_0_0 + edge_10_13_0_0 + edge_11_13_0_0
   + edge_12_13_0_0 + edge_14_13_0_0 + edge_15_13_0_0 = 1
 consume_one_flow_unit_13: flow_0_13_0_0 + flow_1_13_0_0 + flow_2_13_0_0
   + flow_3_13_0_0 + flow_5_13_0_0 + flow_6_13_0_0 + flow_7_13_0_0
   + flow_8_13_0_0 + flow_9_13_0_0 + flow_10_13_0_0 + flow_11_13_0_0
   + flow_12_13_0_0 - flow_13_1_0_0 - flow_13_2_0_0 - flow_13_7_0_0
   - flow_13_8_0_0 - flow_13_9_0_0 - flow_13_10_0_0 - flow_13_11_0_0
   - flow_13_12_0_0 - flow_13_14_0_0 - flow_13_15_0_0 + flow_14_13_0_0
   + flow_15_13_0_0 = 1
 one_parent_14: edge_0_14_0_0 + edge_1_14_0_0 + edge_2_14_0_0
   + edge_3_14_0_0 + edge_5_14_0_0 + edge_6_14_0_0 + edge_7_14_0_0
   + edge_8_14_0_0 + edge_10_14_0_0 + edge_11_14_0_0 + edge_12_14_0_0
   + edge_13_14_0_0 = 1
 consume_one_flow_unit_14: flow_0_14_0_0 + flow_1_14_0_0 + flow_2_14_0_0
   + flow_3_14_0_0 + flow_5_14_0_0 + flow_6_14_0_0 + flow_7_14_0_0
   + flow_8_14_0_0 + flow_10_14_0_0 + flow_11_14_0_0 + flow_12_14_0_0
   + flow_13_14_0_0 - flow_14_1_0_0 - flow_14_2_0_0 - flow_14_3_0_0
   - flow_14_5_0_0 - flow_14_6_0_0 - flow_14_7_0_0 - flow_14_8_0_0
   - flow_14_10_0_0 - flow_14_11_0_0 - flow_14_12_0_0 - flow_14_13_0_0
   - flow_14_15_0_0 = 1
 one_parent_15: edge_1_15_0_0 + edge_2_15_0_0 + edge_3_15_0_0
   + edge_5_15_0_0 + edge_6_15_0_0 + edge_7_15_0_0 + edge_10_15_0_0
   + edge_11_15_0_0 + edge_12_15_0_0 + edge_13_15_0_0 + edge_14_15_0_0 = 1
 consume_one_flow_unit_15: flow_1_15_0_0 + flow_2_15_0_0 + flow_3_15_0_0
   + flow_5_15_0_0 + flow_6_15_0_0 + flow_7_15_0_0 + flow_10_15_0_0
   + flow_11_15_0_0 + flow_12_15_0_0 + flow_13_15_0_0 + flow_14_15_0_0
   - flow_15_12_0_0 - flow_15_13_0_0 = 1
 root_flow: flow_0_1_0_0 + flow_0_2_0_0 + flow_0_3_0_0 + flow_0_5_0_0
   + flow_0_7_0_0 + flow_0_10_0_0 + flow_0_11_0_0 + flow_0_12_0_0
   + flow_0_13_0_0 + flow_0_14_0_0 = 15
 inactive_no_flow_0_1_0_0: flow_0_1_0_0 - 1000 edge_0_1_0_0 <= 0
 inactive_no_flow_0_2_0_0: flow_0_2_0_0 - 1000 edge_0_2_0_0 <= 0
 inactive_no_flow_0_3_0_0: flow_0_3_0_0 - 1000 edge_0_3_0_0 <= 0
 inactive_no_flow_0_5_0_0: flow_0_5_0_0 - 1000 edge_0_5_0_0 <= 0
 inactive_no_flow_0_7_0_0: flow_0_7_0_0 - 1000 edge_0_7_0_0 <= 0
 inactive_no_flow_0_10_0_0: flow_0_10_0_0 - 1000 edge_0_10_0_0 <= 0
 inactive_no_flow_0_11_0_0: flow_0_11_0_0 - 1000 edge_0_11_0_0 <= 0
 inactive_no_flow_0_12_0_0: flow_0_12_0_0 - 1000 edge_0_12_0_0 <= 0
 inactive_no_flow_0_13_0_0: flow_0_13_0_0 - 1000 edge_0_13_0_0 <= 0
 inactive_no_flow_0_14_0_0: flow_0_14_0_0 - 1000 edge_0_14_0_0 <= 0
 inactive_no_flow_1_2_0_0: flow_1_2_0_0 - 1000 edge_1_2_0_0 <= 0
 inactive_no_flow_1_3_0_0: flow_1_3_0_0 - 1000 edge_1_3_0_0 <= 0
 inactive_no_flow_1_5_0_0: flow_1_5_0_0 - 1000 edge_1_5_0_0 <= 0
 inactive_no_flow_1_6_0_0: flow_1_6_0_0 - 1000 edge_1_6_0_0 <= 0
 inactive_no_flow_1_7_0_0: flow_1_7_0_0 - 1000 edge_1_7_0_0 <= 0
 inactive_no_flow_1_8_0_0: flow_1_8_0_0 - 1000 edge_1_8_0_0 <= 0
 inactive_no_flow_1_10_0_0: flow_1_10_0_0 - 1000 edge_1_10_0_0 <= 0
 inactive_no_flow_1_11_0_0: flow_1_11_0_0 - 1000 edge_1_11_0_0 <= 0
 inactive_no_flow_1_12_0_0: flow_1_12_0_0 - 1000 edge_1_12_0_0 <= 0
 inactive_no_flow_1_13_0_0: flow_1_13_0_0 - 1000 edge_1_13_0_0 <= 0
 inactive_no_flow_1_14_0_0: flow_1_14_0_0 - 1000 edge_1_14_0_0 <= 0
 inactive_no_flow_1_15_0_0: flow_1_15_0_0 - 1000 edge_1_15_0_0 <= 0
 inactive_no_flow_2_1_0_0: flow_2_1_0_0 - 1000 edge_2_1_0_0 <= 0
 inactive_no_flow_2_3_0_0: flow_2_3_0_0 - 1000 edge_2_3_0_0 <= 0
 inactive_no_flow_2_5_0_0: flow_2_5_0_0 - 1000 edge_2_5_0_0 <= 0
 inactive_no_flow_2_6_0_0: flow_2_6_0_0 - 1000 edge_2_6_0_0 <= 0
 inactive_no_flow_2_7_0_0: flow_2_7_0_0 - 1000 edge_2_7_0_0 <= 0
 inactive_no_flow_2_8_0_0: flow_2_8_0_0 - 1000 edge_2_8_0_0 <= 0
 inactive_no_flow_2_9_0_0: flow_2_9_0_0 - 1000 edge_2_9_0_0 <= 0
 inactive_no_flow_2_11_0_0: flow_2_11_0_0 - 1000 edge_2_11_0_0 <= 0
 inactive_no_flow_2_13_0_0: flow_2_13_0_0 - 1000 edge_2_13_0_0 <= 0
 inactive_no_flow_2_14_0_0: flow_2_14_0_0 - 1000 edge_2_14_0_0 <= 0
 inactive_no_flow_2_15_0_0: flow_2_15_0_0 - 1000 edge_2_15_0_0 <= 0
 inactive_no_flow_3_1_0_0: flow_3_1_0_0 - 1000 edge_3_1_0_0 <= 0
 inactive_no_flow_3_2_0_0: flow_3_2_0_0 - 1000 edge_3_2_0_0 <= 0
 inactive_no_flow_3_5_0_0: flow_3_5_0_0 - 1000 edge_3_5_0_0 <= 0
 inactive_no_flow_3_6_0_0: flow_3_6_0_0 - 1000 edge_3_6_0_0 <= 0
 inactive_no_flow_3_7_0_0: flow_3_7_0_0 - 1000 edge_3_7_0_0 <= 0
 inactive_no_flow_3_8_0_0: flow_3_8_0_0 - 1000 edge_3_8_0_0 <= 0
 inactive_no_flow_3_10_0_0: flow_3_10_0_0 - 1000 edge_3_10_0_0 <= 0
 inactive_no_flow_3_12_0_0: flow_3_12_0_0 - 1000 edge_3_12_0_0 <= 0
 inactive_no_flow_3_13_0_0: flow_3_13_0_0 - 1000 edge_3_13_0_0 <= 0
 inactive_no_flow_3_14_0_0: flow_3_14_0_0 - 1000 edge_3_14_0_0 <= 0
 inactive_no_flow_3_15_0_0: flow_3_15_0_0 - 1000 edge_3_15_0_0 <= 0
 inactive_no_flow_5_1_0_0: flow_5_1_0_0 - 1000 edge_5_1_0_0 <= 0
 inactive_no_flow_5_2_0_0: flow_5_2_0_0 - 1000 edge_5_2_0_0 <= 0
 inactive_no_flow_5_3_0_0: flow_5_3_0_0 - 1000 edge_5_3_0_0 <= 0
 inactive_no_flow_5_6_0_0: flow_5_6_0_0 - 1000 edge_5_6_0_0 <= 0
 inactive_no_flow_5_7_0_0: flow_5_7_0_0 - 1000 edge_5_7_0_0 <= 0
 inactive_no_flow_5_8_0_0: flow_5_8_0_0 - 1000 edge_5_8_0_0 <= 0
 inactive_no_flow_5_9_0_0: flow_5_9_0_0 - 1000 edge_5_9_0_0 <= 0
 inactive_no_flow_5_10_0_0: flow_5_10_0_0 - 1000 edge_5_10_0_0 <= 0
 inactive_no_flow_5_11_0_0: flow_5_11_0_0 - 1000 edge_5_11_0_0 <= 0
 inactive_no_flow_5_12_0_0: flow_5_12_0_0 - 1000 edge_5_12_0_0 <= 0
 inactive_no_flow_5_13_0_0: flow_5_13_0_0 - 1000 edge_5_13_0_0 <= 0
 inactive_no_flow_5_14_0_0: flow_5_14_0_0 - 1000 edge_5_14_0_0 <= 0
 inactive_no_flow_5_15_0_0: flow_5_15_0_0 - 1000 edge_5_15_0_0 <= 0
 inactive_no_flow_6_1_0_0: flow_6_1_0_0 - 1000 edge_6_1_0_0 <= 0
 inactive_no_flow_6_2_0_0: flow_6_2_0_0 - 1000 edge_6_2_0_0 <= 0
 inactive_no_flow_6_3_0_0: flow_6_3_0_0 - 1000 edge_6_3_0_0 <= 0
 inactive_no_flow_6_5_0_0: flow_6_5_0_0 - 1000 edge_6_5_0_0 <= 0
 inactive_no_flow_6_7_0_0: flow_6_7_0_0 - 1000 edge_6_7_0_0 <= 0
 inactive_no_flow_6_8_0_0: flow_6_8_0_0 - 1000 edge_6_8_0_0 <= 0
 inactive_no_flow_6_9_0_0: flow_6_9_0_0 - 1000 edge_6_9_0_0 <= 0
 inactive_no_flow_6_10_0_0: flow_6_10_0_0 - 1000 edge_6_10_0_0 <= 0
 inactive_no_flow_6_11_0_0: flow_6_11_0_0 - 1000 edge_6_11_0_0 <= 0
 inactive_no_flow_6_12_0_0: flow_6_12_0_0 - 1000 edge_6_12_0_0 <= 0
 inactive_no_flow_6_13_0_0: flow_6_13_0_0 - 1000 edge_6_13_0_0 <= 0
 inactive_no_flow_6_14_0_0: flow_6_14_0_0 - 1000 edge_6_14_0_0 <= 0
 inactive_no_flow_6_15_0_0: flow_6_15_0_0 - 1000 edge_6_15_0_0 <= 0
 inactive_no_flow_7_1_0_0: flow_7_1_0_0 - 1000 edge_7_1_0_0 <= 0
 inactive_no_flow_7_2_0_0: flow_7_2_0_0 - 1000 edge_7_2_0_0 <= 0
 inactive_no_flow_7_3_0_0: flow_7_3_0_0 - 1000 edge_7_3_0_0 <= 0
 inactive_no_flow_7_5_0_0: flow_7_5_0_0 - 1000 edge_7_5_0_0 <= 0
 inactive_no_flow_7_6_0_0: flow_7_6_0_0 - 1000 edge_7_6_0_0 <= 0
 inactive_no_flow_7_8_0_0: flow_7_8_0_0 - 1000 edge_7_8_0_0 <= 0
 inactive_no_flow_7_9_0_0: flow_7_9_0_0 - 1000 edge_7_9_0_0 <= 0
 inactive_no_flow_7_10_0_0: flow_7_10_0_0 - 1000 edge_7_10_0_0 <= 0
 inactive_no_flow_7_11_0_0: flow_7_11_0_0 - 1000 edge_7_11_0_0 <= 0
 inactive_no_flow_7_12_0_0: flow_7_12_0_0 - 1000 edge_7_12_0_0 <= 0
 inactive_no_flow_7_13_0_0: flow_7_13_0_0 - 1000 edge_7_13_0_0 <= 0
 inactive_no_flow_7_14_0_0: flow_7_14_0_0 - 1000 edge_7_14_0_0 <= 0
 inactive_no_flow_7_15_0_0: flow_7_15_0_0 - 1000 edge_7_15_0_0 <= 0
 inactive_no_flow_8_1_0_0: flow_8_1_0_0 - 1000 edge_8_1_0_0 <= 0
 inactive_no_flow_8_6_0_0: flow_8_6_0_0 - 1000 edge_8_6_0_0 <= 0
 inactive_no_flow_8_7_0_0: flow_8_7_0_0 - 1000 edge_8_7_0_0 <= 0
 inactive_no_flow_8_11_0_0: flow_8_11_0_0 - 1000 edge_8_11_0_0 <= 0
 inactive_no_flow_8_13_0_0: flow_8_13_0_0 - 1000 edge_8_13_0_0 <= 0
 inactive_no_flow_8_14_0_0: flow_8_14_0_0 - 1000 edge_8_14_0_0 <= 0
 inactive_no_flow_9_6_0_0: flow_9_6_0_0 - 1000 edge_9_6_0_0 <= 0
 inactive_no_flow_9_7_0_0: flow_9_7_0_0 - 1000 edge_9_7_0_0 <= 0
 inactive_no_flow_9_11_0_0: flow_9_11_0_0 - 1000 edge_9_11_0_0 <= 0
 inactive_no_flow_9_13_0_0: flow_9_13_0_0 - 1000 edge_9_13_0_0 <= 0
 inactive_no_flow_10_1_0_0: flow_10_1_0_0 - 1000 edge_10_1_0_0 <= 0
 inactive_no_flow_10_2_0_0: flow_10_2_0_0 - 1000 edge_10_2_0_0 <= 0
 inactive_no_flow_10_3_0_0: flow_10_3_0_0 - 1000 edge_10_3_0_0 <= 0
 inactive_no_flow_10_5_0_0: flow_10_5_0_0 - 1000 edge_10_5_0_0 <= 0
 inactive_no_flow_10_6_0_0: flow_10_6_0_0 - 1000 edge_10_6_0_0 <= 0
 inactive_no_flow_10_7_0_0: flow_10_7_0_0 - 1000 edge_10_7_0_0 <= 0
 inactive_no_flow_10_8_0_0: flow_10_8_0_0 - 1000 edge_10_8_0_0 <= 0
 inactive_no_flow_10_11_0_0: flow_10_11_0_0 - 1000 edge_10_11_0_0 <= 0
 inactive_no_flow_10_12_0_0: flow_10_12_0_0 - 1000 edge_10_12_0_0 <= 0
 inactive_no_flow_10_13_0_0: flow_10_13_0_0 - 1000 edge_10_13_0_0 <= 0
 inactive_no_flow_10_14_0_0: flow_10_14_0_0 - 1000 edge_10_14_0_0 <= 0
 inactive_no_flow_10_15_0_0: flow_10_15_0_0 - 1000 edge_10_15_0_0 <= 0
 inactive_no_flow_11_1_0_0: flow_11_1_0_0 - 1000 edge_11_1_0_0 <= 0
 inactive_no_flow_11_2_0_0: flow_11_2_0_0 - 1000 edge_11_2_0_0 <= 0
 inactive_no_flow_11_5_0_0: flow_11_5_0_0 - 1000 edge_11_5_0_0 <= 0
 inactive_no_flow_11_6_0_0: flow_11_6_0_0 - 1000 edge_11_6_0_0 <= 0
 inactive_no_flow_11_7_0_0: flow_11_7_0_0 - 1000 edge_11_7_0_0 <= 0
 inactive_no_flow_11_8_0_0: flow_11_8_0_0 - 1000 edge_11_8_0_0 <= 0
 inactive_no_flow_11_9_0_0: flow_11_9_0_0 - 1000 edge_11_9_0_0 <= 0
 inactive_no_flow_11_10_0_0: flow_11_10_0_0 - 1000 edge_11_10_0_0 <= 0
 inactive_no_flow_11_12_0_0: flow_11_12_0_0 - 1000 edge_11_12_0_0 <= 0
 inactive_no_flow_11_13_0_0: flow_11_13_0_0 - 1000 edge_11_13_0_0 <= 0
 inactive_no_flow_11_14_0_0: flow_11_14_0_0 - 1000 edge_11_14_0_0 <= 0
 inactive_no_flow_11_15_0_0: flow_11_15_0_0 - 1000 edge_11_15_0_0 <= 0
 inactive_no_flow_12_1_0_0: flow_12_1_0_0 - 1000 edge_12_1_0_0 <= 0
 inactive_no_flow_12_2_0_0: flow_12_2_0_0 - 1000 edge_12_2_0_0 <= 0
 inactive_no_flow_12_3_0_0: flow_12_3_0_0 - 1000 edge_12_3_0_0 <= 0
 inactive_no_flow_12_5_0_0: flow_12_5_0_0 - 1000 edge_12_5_0_0 <= 0
 inactive_no_flow_12_6_0_0: flow_12_6_0_0 - 1000 edge_12_6_0_0 <= 0
 inactive_no_flow_12_7_0_0: flow_12_7_0_0 - 1000 edge_12_7_0_0 <= 0
 inactive_no_flow_12_8_0_0: flow_12_8_0_0 - 1000 edge_12_8_0_0 <= 0
 inactive_no_flow_12_10_0_0: flow_12_10_0_0 - 1000 edge_12_10_0_0 <= 0
 inactive_no_flow_12_11_0_0: flow_12_11_0_0 - 1000 edge_12_11_0_0 <= 0
 inactive_no_flow_12_13_0_0: flow_12_13_0_0 - 1000 edge_12_13_0_0 <= 0
 inactive_no_flow_12_14_0_0: flow_12_14_0_0 - 1000 edge_12_14_0_0 <= 0
 inactive_no_flow_12_15_0_0: flow_12_15_0_0 - 1000 edge_12_15_0_0 <= 0
 inactive_no_flow_13_1_0_0: flow_13_1_0_0 - 1000 edge_13_1_0_0 <= 0
 inactive_no_flow_13_2_0_0: flow_13_2_0_0 - 1000 edge_13_2_0_0 <= 0
 inactive_no_flow_13_7_0_0: flow_13_7_0_0 - 1000 edge_13_7_0_0 <= 0
 inactive_no_flow_13_8_0_0: flow_13_8_0_0 - 1000 edge_13_8_0_0 <= 0
 inactive_no_flow_13_9_0_0: flow_13_9_0_0 - 1000 edge_13_9_0_0 <= 0
 inactive_no_flow_13_10_0_0: flow_13_10_0_0 - 1000 edge_13_10_0_0 <= 0
 inactive_no_flow_13_11_0_0: flow_13_11_0_0 - 1000 edge_13_11_0_0 <= 0
 inactive_no_flow_13_12_0_0: flow_13_12_0_0 - 1000 edge_13_12_0_0 <= 0
 inactive_no_flow_13_14_0_0: flow_13_14_0_0 - 1000 edge_13_14_0_0 <= 0
 inactive_no_flow_13_15_0_0: flow_13_15_0_0 - 1000 edge_13_15_0_0 <= 0
 inactive_no_flow_14_1_0_0: flow_14_1_0_0 - 1000 edge_14_1_0_0 <= 0
 inactive_no_flow_14_2_0_0: flow_14_2_0_0 - 1000 edge_14_2_0_0 <= 0
 inactive_no_flow_14_3_0_0: flow_14_3_0_0 - 1000 edge_14_3_0_0 <= 0
 inactive_no_flow_14_5_0_0: flow_14_5_0_0 - 1000 edge_14_5_0_0 <= 0
 inactive_no_flow_14_6_0_0: flow_14_6_0_0 - 1000 edge_14_6_0_0 <= 0
 inactive_no_flow_14_7_0_0: flow_14_7_0_0 - 1000 edge_14_7_0_0 <= 0
 inactive_no_flow_14_8_0_0: flow_14_8_0_0 - 1000 edge_14_8_0_0 <= 0
 inactive_no_flow_14_10_0_0: flow_14_10_0_0 - 1000 edge_14_10_0_0 <= 0
 inactive_no_flow_14_11_0_0: flow_14_11_0_0 - 1000 edge_14_11_0_0 <= 0
 inactive_no_flow_14_12_0_0: flow_14_12_0_0 - 1000 edge_14_12_0_0 <= 0
 inactive_no_flow_14_13_0_0: flow_14_13_0_0 - 1000 edge_14_13_0_0 <= 0
 inactive_no_flow_14_15_0_0: flow_14_15_0_0 - 1000 edge_14_15_0_0 <= 0
 inactive_no_flow_15_12_0_0: flow_15_12_0_0 - 1000 edge_15_12_0_0 <= 0
 inactive_no_flow_15_13_0_0: flow_15_13_0_0 - 1000 edge_15_13_0_0 <= 0
Bounds
Binaries
 edge_0_1_0_0 edge_0_2_0_0 edge_0_3_0_0 edge_0_5_0_0 edge_0_7_0_0
 edge_0_10_0_0 edge_0_11_0_0 edge_0_12_0_0 edge_0_13_0_0 edge_0_14_0_0
 edge_1_2_0_0 edge_1_3_0_0 edge_1_5_0_0 edge_1_6_0_0 edge_1_7_0_0
 edge_1_8_0_0 edge_1_10_0_0 edge_1_11_0_0 edge_1_12_0_0 edge_1_13_0_0
 edge_1_14_0_0 edge_1_15_0_0 edge_2_1_0_0 edge_2_3_0_0 edge_2_5_0_0
 edge_2_6_0_0 edge_2_7_0_0 edge_2_8_0_0 edge_2_9_0_0 edge_2_11_0_0
 edge_2_13_0_0 edge_2_14_0_0 edge_2_15_0_0 edge_3_1_0_0 edge_3_2_0_0
 edge_3_5_0_0 edge_3_6_0_0 edge_3_7_0_0 edge_3_8_0_0 edge_3_10_0_0
 edge_3_12_0_0 edge_3_13_0_0 edge_3_14_0_0 edge_3_15_0_0 edge_5_1_0_0
 edge_5_2_0_0 edge_5_3_0_0 edge_5_6_0_0 edge_5_7_0_0 edge_5_8_0_0
 edge_5_9_0_0 edge_5_10_0_0 edge_5_11_0_0 edge_5_12_0_0 edge_5_13_0_0
 edge_5_14_0_0 edge_5_15_0_0 edge_6_1_0_0 edge_6_2_0_0 edge_6_3_0_0
 edge_6_5_0_0 edge_6_7_0_0 edge_6_8_0_0 edge_6_9_0_0 edge_6_10_0_0
 edge_6_11_0_0 edge_6_12_0_0 edge_6_13_0_0 edge_6_14_0_0 edge_6_15_0_0
 edge_7_1_0_0 edge_7_2_0_0 edge_7_3_0_0 edge_7_5_0_0 edge_7_6_0_0
 edge_7_8_0_0 edge_7_9_0_0 edge_7_10_0_0 edge_7_11_0_0 edge_7_12_0_0
 edge_7_13_0_0 edge_7_14_0_0 edge_7_15_0_0 edge_8_1_0_0 edge_8_6_0_0
 edge_8_7_0_0 edge_8_11_0_0 edge_8_13_0_0 edge_8_14_0_0 edge_9_6_0_0
 edge_9_7_0_0 edge_9_11_0_0 edge_9_13_0_0 edge_10_1_0_0 edge_10_2_0_0
 edge_10_3_0_0 edge_10_5_0_0 edge_10_6_0_0 edge_10_7_0_0 edge_10_8_0_0
 edge_10_11_0_0 edge_10_12_0_0 edge_10_13_0_0 edge_10_14_0_0 edge_10_15_0_0
 edge_11_1_0_0 edge_11_2_0_0 edge_11_5_0_0 edge_11_6_0_0 edge_11_7_0_0
 edge_11_8_0_0 edge_11_9_0_0 edge_11_10_0_0 edge_11_12_0_0 edge_11_13_0_0
 edge_11_14_0_0 edge_11_15_0_0 edge_12_1_0_0 edge_12_2_0_0 edge_12_3_0_0
 edge_12_5_0_0 edge_12_6_0_0 edge_12_7_0_0 edge_12_8_0_0 edge_12_10_0_0
 edge_12_11_0_0 edge_12_13_0_0 edge_12_14_0_0 edge_12_15_0_0 edge_13_1_0_0
 edge_13_2_0_0 edge_13_7_0_0 edge_13_8_0_0 edge_13_9_0_0 edge_13_10_0_0
 edge_13_11_0_0 edge_13_12_0_0 edge_13_14_0_0 edge_13_15_0_0 edge_14_1_0_0
 edge_14_2_0_0 edge_14_3_0_0 edge_14_5_0_0 edge_14_6_0_0 edge_14_7_0_0
 edge_14_8_0_0 edge_14_10_0_0 edge_14_11_0_0 edge_14_12_0_0 edge_14_13_0_0
 edge_14_15_0_0 edge_15_12_0_0 edge_15_13_0_0
End
